(declare-const x String)
(declare-const y String)
(declare-const m String)
(declare-const n String)
(assert (str.in.re x (re.union (str.to.re "a&") (re.* (str.to.re "H&;$G'oxm""")))))
(assert (str.in.re x (re.++ (str.to.re "6^Q'\x0b'a") (re.union (re.+ (str.to.re "b")) (re.+ (str.to.re "c"))))))
(assert (= 4 (str.len x)))
(check-sat)
(get-model)
